(set-info :source |printed by MathSAT|)
(declare-fun call_illinois.ite38 () Int)
(declare-fun call_illinois.ite31 () Int)
(declare-fun call_illinois.ite28 () Int)
(declare-fun env () Bool)
(declare-fun call_illinois.ite5 () Int)
(declare-fun call_illinois.ite35 () Int)
(declare-fun call_illinois.ite17 () Int)
(declare-fun call_illinois.ite14 () Int)
(declare-fun call_illinois.ite30 () Int)
(declare-fun call_illinois.ite9 () Int)
(declare-fun call_illinois.ite6 () Int)
(declare-fun invalid () Int)
(declare-fun call_illinois.ite18 () Int)
(declare-fun param_e6 () Bool)
(declare-fun call_illinois.ite16 () Int)
(declare-fun call_illinois.ite41 () Int)
(declare-fun call_illinois.ite39 () Int)
(declare-fun call_illinois.ite42 () Int)
(declare-fun call_illinois.ite15 () Int)
(declare-fun param_e7 () Bool)
(declare-fun call_illinois.ite34 () Int)
(declare-fun call_illinois.invalid () Int)
(declare-fun call_illinois.ite36 () Int)
(declare-fun dirty () Int)
(declare-fun call_illinois.g6 () Bool)
(declare-fun call_illinois.ite11 () Int)
(declare-fun _A1_ () Bool)
(declare-fun call_illinois.ite25 () Int)
(declare-fun param_e8 () Bool)
(declare-fun call_illinois.ite45 () Int)
(declare-fun param_e2 () Bool)
(declare-fun call_illinois.ite44 () Int)
(declare-fun call_illinois.dirty () Int)
(declare-fun call_Sofar.Sofar () Bool)
(declare-fun call_illinois.ite20 () Int)
(declare-fun param_e3 () Bool)
(declare-fun shared () Int)
(declare-fun call_illinois.exclusive () Int)
(declare-fun call_illinois.ite4 () Int)
(declare-fun call_Sofar.flby () Bool)
(declare-fun call_illinois.flby2 () Int)
(declare-fun call_illinois.flby4 () Int)
(declare-fun call_illinois.ite8 () Int)
(declare-fun param_e1 () Bool)
(declare-fun call_illinois.ite47 () Int)
(declare-fun call_illinois.ite33 () Int)
(declare-fun call_illinois.ite43 () Int)
(declare-fun call_illinois.ite24 () Int)
(declare-fun call_illinois.ite21 () Int)
(declare-fun call_illinois.ite10 () Int)
(declare-fun call_illinois.ite13 () Int)
(declare-fun call_illinois.ite40 () Int)
(declare-fun param_e4 () Bool)
(declare-fun call_illinois.shared () Int)
(declare-fun exclusive () Int)
(declare-fun call_illinois.ite2 () Int)
(declare-fun call_illinois.ite27 () Int)
(declare-fun call_illinois.g5 () Bool)
(declare-fun _A2_ () Bool)
(declare-fun call_illinois.ite19 () Int)
(declare-fun call_illinois.ite46 () Int)
(declare-fun call_illinois.ite22 () Int)
(declare-fun call_illinois.ite () Int)
(declare-fun call_illinois.flby () Int)
(declare-fun call_illinois.ite7 () Int)
(declare-fun _R3_ () Bool)
(declare-fun call_illinois.ite3 () Int)
(declare-fun call_illinois.ite12 () Int)
(declare-fun call_excludes9.excludes () Bool)
(declare-fun call_illinois.flby3 () Int)
(declare-fun call_illinois.ite26 () Int)
(declare-fun _A3_ () Bool)
(declare-fun param_e9 () Bool)
(declare-fun param_init_invalid () Int)
(declare-fun call_illinois.ite37 () Int)
(declare-fun call_illinois.ite32 () Int)
(declare-fun call_illinois.ite29 () Int)
(declare-fun call_illinois.ite23 () Int)
(declare-fun _OK_ () Bool)
(declare-fun param_e5 () Bool)
(define-fun .def_1293 () Bool (= call_Sofar.flby call_Sofar.Sofar))
(define-fun .def_1088 () Bool (not param_e2))
(define-fun .def_1069 () Bool (not param_e1))
(define-fun .def_1230 () Bool (and .def_1069 .def_1088))
(define-fun .def_1116 () Bool (not param_e3))
(define-fun .def_1231 () Bool (and .def_1116 .def_1230))
(define-fun .def_1142 () Bool (not param_e4))
(define-fun .def_1232 () Bool (and .def_1142 .def_1231))
(define-fun .def_1160 () Bool (not param_e5))
(define-fun .def_1233 () Bool (and .def_1160 .def_1232))
(define-fun .def_1185 () Bool (not param_e6))
(define-fun .def_1234 () Bool (and .def_1185 .def_1233))
(define-fun .def_962 () Bool (not param_e7))
(define-fun .def_1235 () Bool (and .def_962 .def_1234))
(define-fun .def_969 () Bool (not param_e8))
(define-fun .def_1236 () Bool (and .def_969 .def_1235))
(define-fun .def_951 () Bool (not param_e9))
(define-fun .def_1281 () Bool (and .def_951 .def_1236))
(define-fun .def_1273 () Bool (and param_e1 .def_1088))
(define-fun .def_1274 () Bool (and .def_1116 .def_1273))
(define-fun .def_1275 () Bool (and .def_1142 .def_1274))
(define-fun .def_1276 () Bool (and .def_1160 .def_1275))
(define-fun .def_1277 () Bool (and .def_1185 .def_1276))
(define-fun .def_1278 () Bool (and .def_962 .def_1277))
(define-fun .def_1279 () Bool (and .def_969 .def_1278))
(define-fun .def_1280 () Bool (and .def_951 .def_1279))
(define-fun .def_1282 () Bool (or .def_1280 .def_1281))
(define-fun .def_1265 () Bool (and .def_1069 param_e2))
(define-fun .def_1266 () Bool (and .def_1116 .def_1265))
(define-fun .def_1267 () Bool (and .def_1142 .def_1266))
(define-fun .def_1268 () Bool (and .def_1160 .def_1267))
(define-fun .def_1269 () Bool (and .def_1185 .def_1268))
(define-fun .def_1270 () Bool (and .def_962 .def_1269))
(define-fun .def_1271 () Bool (and .def_969 .def_1270))
(define-fun .def_1272 () Bool (and .def_951 .def_1271))
(define-fun .def_1283 () Bool (or .def_1272 .def_1282))
(define-fun .def_1258 () Bool (and param_e3 .def_1230))
(define-fun .def_1259 () Bool (and .def_1142 .def_1258))
(define-fun .def_1260 () Bool (and .def_1160 .def_1259))
(define-fun .def_1261 () Bool (and .def_1185 .def_1260))
(define-fun .def_1262 () Bool (and .def_962 .def_1261))
(define-fun .def_1263 () Bool (and .def_969 .def_1262))
(define-fun .def_1264 () Bool (and .def_951 .def_1263))
(define-fun .def_1284 () Bool (or .def_1264 .def_1283))
(define-fun .def_1252 () Bool (and param_e4 .def_1231))
(define-fun .def_1253 () Bool (and .def_1160 .def_1252))
(define-fun .def_1254 () Bool (and .def_1185 .def_1253))
(define-fun .def_1255 () Bool (and .def_962 .def_1254))
(define-fun .def_1256 () Bool (and .def_969 .def_1255))
(define-fun .def_1257 () Bool (and .def_951 .def_1256))
(define-fun .def_1285 () Bool (or .def_1257 .def_1284))
(define-fun .def_1247 () Bool (and param_e5 .def_1232))
(define-fun .def_1248 () Bool (and .def_1185 .def_1247))
(define-fun .def_1249 () Bool (and .def_962 .def_1248))
(define-fun .def_1250 () Bool (and .def_969 .def_1249))
(define-fun .def_1251 () Bool (and .def_951 .def_1250))
(define-fun .def_1286 () Bool (or .def_1251 .def_1285))
(define-fun .def_1243 () Bool (and param_e6 .def_1233))
(define-fun .def_1244 () Bool (and .def_962 .def_1243))
(define-fun .def_1245 () Bool (and .def_969 .def_1244))
(define-fun .def_1246 () Bool (and .def_951 .def_1245))
(define-fun .def_1287 () Bool (or .def_1246 .def_1286))
(define-fun .def_1240 () Bool (and param_e7 .def_1234))
(define-fun .def_1241 () Bool (and .def_969 .def_1240))
(define-fun .def_1242 () Bool (and .def_951 .def_1241))
(define-fun .def_1288 () Bool (or .def_1242 .def_1287))
(define-fun .def_1238 () Bool (and param_e8 .def_1235))
(define-fun .def_1239 () Bool (and .def_951 .def_1238))
(define-fun .def_1289 () Bool (or .def_1239 .def_1288))
(define-fun .def_1237 () Bool (and param_e9 .def_1236))
(define-fun .def_1290 () Bool (or .def_1237 .def_1289))
(define-fun .def_1291 () Bool (= call_excludes9.excludes .def_1290))
(define-fun .def_1228 () Bool (= call_illinois.flby4 call_illinois.shared))
(define-fun .def_1226 () Bool (= call_illinois.flby3 call_illinois.exclusive))
(define-fun .def_1224 () Bool (= call_illinois.flby2 call_illinois.dirty))
(define-fun .def_1222 () Bool (= call_illinois.flby call_illinois.invalid))
(define-fun .def_1218 () Bool (= call_illinois.ite11 call_illinois.ite8))
(define-fun .def_1219 () Bool (or .def_969 .def_1218))
(define-fun .def_1215 () Bool (= call_illinois.ite10 call_illinois.ite11))
(define-fun .def_1216 () Bool (or param_e8 .def_1215))
(define-fun .def_1220 () Bool (and .def_1216 .def_1219))
(define-fun .def_1211 () Bool (= call_illinois.ite12 call_illinois.ite7))
(define-fun .def_1212 () Bool (or .def_962 .def_1211))
(define-fun .def_1208 () Bool (= call_illinois.ite12 call_illinois.ite11))
(define-fun .def_1209 () Bool (or param_e7 .def_1208))
(define-fun .def_1213 () Bool (and .def_1209 .def_1212))
(define-fun .def_1203 () Bool (= call_illinois.ite43 call_illinois.ite44))
(define-fun .def_1204 () Bool (or param_e6 .def_1203))
(define-fun .def_1200 () Bool (= call_illinois.ite41 call_illinois.ite44))
(define-fun .def_1201 () Bool (or .def_1185 .def_1200))
(define-fun .def_1197 () Bool (= call_illinois.ite33 call_illinois.ite34))
(define-fun .def_1198 () Bool (or param_e6 .def_1197))
(define-fun .def_1194 () Bool (= call_illinois.ite31 call_illinois.ite34))
(define-fun .def_1195 () Bool (or .def_1185 .def_1194))
(define-fun .def_1191 () Bool (= call_illinois.ite23 call_illinois.ite24))
(define-fun .def_1192 () Bool (or param_e6 .def_1191))
(define-fun .def_1188 () Bool (= call_illinois.ite21 call_illinois.ite24))
(define-fun .def_1189 () Bool (or .def_1185 .def_1188))
(define-fun .def_1184 () Bool (= call_illinois.ite13 call_illinois.ite6))
(define-fun .def_1186 () Bool (or .def_1184 .def_1185))
(define-fun .def_1180 () Bool (= call_illinois.ite13 call_illinois.ite12))
(define-fun .def_1182 () Bool (or .def_1180 param_e6))
(define-fun .def_1187 () Bool (and .def_1182 .def_1186))
(define-fun .def_1190 () Bool (and .def_1187 .def_1189))
(define-fun .def_1193 () Bool (and .def_1190 .def_1192))
(define-fun .def_1196 () Bool (and .def_1193 .def_1195))
(define-fun .def_1199 () Bool (and .def_1196 .def_1198))
(define-fun .def_1202 () Bool (and .def_1199 .def_1201))
(define-fun .def_1205 () Bool (and .def_1202 .def_1204))
(define-fun .def_1175 () Bool (= call_illinois.ite45 call_illinois.ite44))
(define-fun .def_1176 () Bool (or param_e5 .def_1175))
(define-fun .def_1171 () Bool (= call_illinois.ite40 call_illinois.ite45))
(define-fun .def_1172 () Bool (or .def_1160 .def_1171))
(define-fun .def_1168 () Bool (= call_illinois.ite25 call_illinois.ite24))
(define-fun .def_1169 () Bool (or param_e5 .def_1168))
(define-fun .def_1164 () Bool (= call_illinois.ite25 call_illinois.ite20))
(define-fun .def_1165 () Bool (or .def_1160 .def_1164))
(define-fun .def_1159 () Bool (= call_illinois.ite14 call_illinois.ite5))
(define-fun .def_1161 () Bool (or .def_1159 .def_1160))
(define-fun .def_1155 () Bool (= call_illinois.ite14 call_illinois.ite13))
(define-fun .def_1157 () Bool (or .def_1155 param_e5))
(define-fun .def_1162 () Bool (and .def_1157 .def_1161))
(define-fun .def_1166 () Bool (and .def_1162 .def_1165))
(define-fun .def_1170 () Bool (and .def_1166 .def_1169))
(define-fun .def_1173 () Bool (and .def_1170 .def_1172))
(define-fun .def_1177 () Bool (and .def_1173 .def_1176))
(define-fun .def_1150 () Bool (= call_illinois.ite35 call_illinois.ite34))
(define-fun .def_1151 () Bool (or param_e4 .def_1150))
(define-fun .def_1146 () Bool (= call_illinois.ite35 call_illinois.ite30))
(define-fun .def_1147 () Bool (or .def_1142 .def_1146))
(define-fun .def_1141 () Bool (= call_illinois.ite26 call_illinois.ite19))
(define-fun .def_1143 () Bool (or .def_1141 .def_1142))
(define-fun .def_1137 () Bool (= call_illinois.ite26 call_illinois.ite25))
(define-fun .def_1139 () Bool (or .def_1137 param_e4))
(define-fun .def_1144 () Bool (and .def_1139 .def_1143))
(define-fun .def_1148 () Bool (and .def_1144 .def_1147))
(define-fun .def_1152 () Bool (and .def_1148 .def_1151))
(define-fun .def_1132 () Bool (= call_illinois.ite46 call_illinois.ite45))
(define-fun .def_1133 () Bool (or param_e3 .def_1132))
(define-fun .def_1128 () Bool (= call_illinois.ite46 call_illinois.ite39))
(define-fun .def_1129 () Bool (or .def_1116 .def_1128))
(define-fun .def_1124 () Bool (= call_illinois.ite36 call_illinois.ite35))
(define-fun .def_1125 () Bool (or param_e3 .def_1124))
(define-fun .def_1120 () Bool (= call_illinois.ite36 call_illinois.ite29))
(define-fun .def_1121 () Bool (or .def_1116 .def_1120))
(define-fun .def_1115 () Bool (= call_illinois.ite15 call_illinois.ite4))
(define-fun .def_1117 () Bool (or .def_1115 .def_1116))
(define-fun .def_1111 () Bool (= call_illinois.ite15 call_illinois.ite14))
(define-fun .def_1113 () Bool (or .def_1111 param_e3))
(define-fun .def_1118 () Bool (and .def_1113 .def_1117))
(define-fun .def_1122 () Bool (and .def_1118 .def_1121))
(define-fun .def_1126 () Bool (and .def_1122 .def_1125))
(define-fun .def_1130 () Bool (and .def_1126 .def_1129))
(define-fun .def_1134 () Bool (and .def_1130 .def_1133))
(define-fun .def_1106 () Bool (= call_illinois.ite47 call_illinois.ite46))
(define-fun .def_1107 () Bool (or param_e2 .def_1106))
(define-fun .def_1102 () Bool (= call_illinois.ite38 call_illinois.ite47))
(define-fun .def_1103 () Bool (or .def_1088 .def_1102))
(define-fun .def_1097 () Bool (= call_illinois.ite27 call_illinois.ite26))
(define-fun .def_1098 () Bool (or param_e2 .def_1097))
(define-fun .def_1093 () Bool (= call_illinois.ite18 call_illinois.ite27))
(define-fun .def_1094 () Bool (or .def_1088 .def_1093))
(define-fun .def_1087 () Bool (= call_illinois.ite16 call_illinois.ite3))
(define-fun .def_1089 () Bool (or .def_1087 .def_1088))
(define-fun .def_1083 () Bool (= call_illinois.ite16 call_illinois.ite15))
(define-fun .def_1085 () Bool (or .def_1083 param_e2))
(define-fun .def_1090 () Bool (and .def_1085 .def_1089))
(define-fun .def_1095 () Bool (and .def_1090 .def_1094))
(define-fun .def_1099 () Bool (and .def_1095 .def_1098))
(define-fun .def_1104 () Bool (and .def_1099 .def_1103))
(define-fun .def_1108 () Bool (and .def_1104 .def_1107))
(define-fun .def_1078 () Bool (= call_illinois.ite37 call_illinois.ite36))
(define-fun .def_1079 () Bool (or param_e1 .def_1078))
(define-fun .def_1074 () Bool (= call_illinois.ite28 call_illinois.ite37))
(define-fun .def_1075 () Bool (or .def_1069 .def_1074))
(define-fun .def_1068 () Bool (= call_illinois.ite17 call_illinois.ite2))
(define-fun .def_1070 () Bool (or .def_1068 .def_1069))
(define-fun .def_1064 () Bool (= call_illinois.ite17 call_illinois.ite16))
(define-fun .def_1066 () Bool (or .def_1064 param_e1))
(define-fun .def_1071 () Bool (and .def_1066 .def_1070))
(define-fun .def_1076 () Bool (and .def_1071 .def_1075))
(define-fun .def_1080 () Bool (and .def_1076 .def_1079))
(define-fun .def_1058 () Bool (= call_illinois.ite param_init_invalid))
(define-fun .def_1053 () Bool (<= param_init_invalid 0))
(define-fun .def_1059 () Bool (or .def_1053 .def_1058))
(define-fun .def_1055 () Int (+ call_illinois.ite param_init_invalid))
(define-fun .def_1056 () Bool (= .def_1055 1))
(define-fun .def_1054 () Bool (not .def_1053))
(define-fun .def_1057 () Bool (or .def_1054 .def_1056))
(define-fun .def_1060 () Bool (and .def_1057 .def_1059))
(define-fun .def_1050 () Bool (= env call_Sofar.Sofar))
(define-fun .def_1045 () Bool (<= 0 exclusive))
(define-fun .def_1035 () Bool (not env))
(define-fun .def_1046 () Bool (or .def_1035 .def_1045))
(define-fun .def_1047 () Bool (= _A3_ .def_1046))
(define-fun .def_1041 () Bool (<= 0 dirty))
(define-fun .def_1042 () Bool (or .def_1035 .def_1041))
(define-fun .def_1043 () Bool (= _A2_ .def_1042))
(define-fun .def_1032 () Bool (<= 2 dirty))
(define-fun .def_1033 () Bool (not .def_1032))
(define-fun .def_1036 () Bool (or .def_1033 .def_1035))
(define-fun .def_1037 () Bool (= _R3_ .def_1036))
(define-fun .def_1030 () Bool (= shared call_illinois.shared))
(define-fun .def_1026 () Bool (= exclusive call_illinois.exclusive))
(define-fun .def_1022 () Bool (= dirty call_illinois.dirty))
(define-fun .def_1018 () Bool (= invalid call_illinois.invalid))
(define-fun .def_1012 () Bool (and _A1_ _A3_))
(define-fun .def_1014 () Bool (and .def_1012 _R3_))
(define-fun .def_1015 () Bool (= _OK_ .def_1014))
(define-fun .def_1019 () Bool (and .def_1015 .def_1018))
(define-fun .def_1023 () Bool (and .def_1019 .def_1022))
(define-fun .def_1027 () Bool (and .def_1023 .def_1026))
(define-fun .def_1031 () Bool (and .def_1027 .def_1030))
(define-fun .def_1038 () Bool (and .def_1031 .def_1037))
(define-fun .def_1039 () Bool (and _A1_ .def_1038))
(define-fun .def_1044 () Bool (and .def_1039 .def_1043))
(define-fun .def_1048 () Bool (and .def_1044 .def_1047))
(define-fun .def_1051 () Bool (and .def_1048 .def_1050))
(define-fun .def_1061 () Bool (and .def_1051 .def_1060))
(define-fun .def_1081 () Bool (and .def_1061 .def_1080))
(define-fun .def_1109 () Bool (and .def_1081 .def_1108))
(define-fun .def_1135 () Bool (and .def_1109 .def_1134))
(define-fun .def_1153 () Bool (and .def_1135 .def_1152))
(define-fun .def_1178 () Bool (and .def_1153 .def_1177))
(define-fun .def_1206 () Bool (and .def_1178 .def_1205))
(define-fun .def_1214 () Bool (and .def_1206 .def_1213))
(define-fun .def_1221 () Bool (and .def_1214 .def_1220))
(define-fun .def_1223 () Bool (and .def_1221 .def_1222))
(define-fun .def_1225 () Bool (and .def_1223 .def_1224))
(define-fun .def_1227 () Bool (and .def_1225 .def_1226))
(define-fun .def_1229 () Bool (and .def_1227 .def_1228))
(define-fun .def_1292 () Bool (and .def_1229 .def_1291))
(define-fun .def_1294 () Bool (and .def_1292 .def_1293))
(define-fun .def_1007 () Bool (= call_excludes9.excludes call_Sofar.flby))
(define-fun .def_1003 () Bool (= call_illinois.flby4 0))
(define-fun .def_1000 () Bool (= call_illinois.flby3 0))
(define-fun .def_997 () Bool (= call_illinois.flby2 0))
(define-fun .def_994 () Bool (= call_illinois.ite call_illinois.flby))
(define-fun .def_988 () Bool (= call_illinois.ite41 0))
(define-fun .def_981 () Bool (not call_illinois.g6))
(define-fun .def_989 () Bool (or .def_981 .def_988))
(define-fun .def_984 () Bool (= call_illinois.ite21 1))
(define-fun .def_985 () Bool (or .def_981 .def_984))
(define-fun .def_979 () Bool (= call_illinois.ite31 0))
(define-fun .def_982 () Bool (or .def_979 .def_981))
(define-fun .def_986 () Bool (and .def_982 .def_985))
(define-fun .def_990 () Bool (and .def_986 .def_989))
(define-fun .def_975 () Bool (= call_illinois.ite40 0))
(define-fun .def_973 () Bool (not call_illinois.g5))
(define-fun .def_976 () Bool (or .def_973 .def_975))
(define-fun .def_967 () Bool (= call_illinois.ite42 call_illinois.ite43))
(define-fun .def_970 () Bool (or .def_967 .def_969))
(define-fun .def_960 () Bool (= call_illinois.ite22 call_illinois.ite23))
(define-fun .def_963 () Bool (or .def_960 .def_962))
(define-fun .def_955 () Bool (= call_illinois.ite9 call_illinois.ite10))
(define-fun .def_956 () Bool (or .def_951 .def_955))
(define-fun .def_949 () Bool (= call_illinois.ite32 call_illinois.ite33))
(define-fun .def_952 () Bool (or .def_949 .def_951))
(define-fun .def_957 () Bool (and .def_952 .def_956))
(define-fun .def_964 () Bool (and .def_957 .def_963))
(define-fun .def_971 () Bool (and .def_964 .def_970))
(define-fun .def_977 () Bool (and .def_971 .def_976))
(define-fun .def_991 () Bool (and .def_977 .def_990))
(define-fun .def_995 () Bool (and .def_991 .def_994))
(define-fun .def_998 () Bool (and .def_995 .def_997))
(define-fun .def_1001 () Bool (and .def_998 .def_1000))
(define-fun .def_1004 () Bool (and .def_1001 .def_1003))
(define-fun .def_1008 () Bool (and .def_1004 .def_1007))
(define-fun .def_1295 () Bool (and .def_1008 .def_1294))
(assert .def_1295)
